set VV := 0 1 2 3 4 5 6 7 8 9 10 11 12 13 14 15 16 17 18 19 20 21 22 23 24 ;
set VS := 0 1 2 3 4 5 6 7 8 9 10 11 12 13 14 15 16 17 18 19 20 21 22 23 24 25 26 27 28 29 30 31 32 33 34 35 36 37 38 39 40 41 42 43 44 45 46 47 48 49 50 51 52 53 54 ;
param cv := 
0 25
1 14
2 21
3 18
4 25
5 21
6 18
7 14
8 16
9 13
10 12
11 19
12 17
13 11
14 19
15 19
16 18
17 22
18 20
19 18
20 21
21 11
22 17
23 20
24 16
;
param cs := 
0 27
1 20
2 31
3 39
4 23
5 40
6 22
7 39
8 21
9 37
10 31
11 22
12 40
13 28
14 35
15 26
16 29
17 33
18 35
19 37
20 38
21 34
22 36
23 32
24 38
25 38
26 21
27 32
28 28
29 29
30 34
31 26
32 22
33 36
34 31
35 24
36 38
37 27
38 28
39 25
40 34
41 40
42 26
43 33
44 27
45 32
46 22
47 26
48 30
49 26
50 25
51 21
52 38
53 30
54 36
;
param bv:	 0 1 2 3 4 5 6 7 8 9 10 11 12 13 14 15 16 17 18 19 20 21 22 23 24 := 
		0 0 0 0 0 0 0 0 14 0 0 0 0 0 0 0 0 0 0 0 0 0 0 0 0 0 
		1 0 0 0 0 0 0 0 0 0 0 0 10 0 0 11 0 0 0 16 0 0 0 0 0 0 
		2 0 0 0 0 0 0 0 0 0 0 0 0 0 0 0 0 0 0 0 0 0 23 0 0 0 
		3 0 0 0 0 0 0 10 0 0 0 0 0 0 0 0 0 0 23 0 0 0 0 16 0 16 
		4 0 0 0 0 0 19 0 0 0 0 21 0 0 16 0 20 0 0 0 0 0 0 0 0 0 
		5 0 0 0 0 0 0 0 0 0 0 0 0 0 0 0 0 0 0 0 0 0 0 0 0 0 
		6 0 0 0 0 0 0 0 0 0 19 0 0 0 0 0 0 0 0 0 0 20 0 0 0 16 
		7 0 0 0 0 0 0 0 0 0 24 0 0 0 0 0 0 0 0 0 0 0 0 0 0 0 
		8 0 0 0 0 0 0 0 0 0 0 0 0 0 22 0 0 0 0 0 0 18 0 0 0 0 
		9 0 0 0 0 0 0 0 0 0 0 0 0 19 0 0 0 12 24 0 0 21 0 0 0 0 
		10 0 0 0 0 0 0 0 0 0 0 0 0 0 0 0 0 0 0 0 0 0 0 0 0 0 
		11 0 0 0 0 0 0 0 0 0 0 0 0 0 0 0 0 0 0 0 0 0 22 0 0 0 
		12 0 0 0 0 0 0 0 0 0 0 0 0 0 0 0 0 0 0 0 0 0 24 0 0 0 
		13 0 0 0 0 0 0 0 0 0 0 0 0 0 0 0 0 0 24 0 0 0 0 0 0 0 
		14 0 0 0 0 0 0 0 0 0 0 0 0 0 0 0 0 0 0 0 0 0 0 0 0 0 
		15 0 0 0 0 0 0 0 0 0 0 0 0 0 0 0 0 0 0 11 0 0 0 0 0 0 
		16 0 0 0 0 0 0 0 0 0 0 0 0 0 0 0 0 0 12 0 0 0 0 0 0 0 
		17 0 0 0 0 0 0 0 0 0 0 0 0 0 0 0 0 0 0 0 0 23 0 0 0 0 
		18 0 0 0 0 0 0 0 0 0 0 0 0 0 0 0 0 0 0 0 0 0 0 0 0 0 
		19 0 0 0 0 0 0 0 0 0 0 0 0 0 0 0 0 0 0 0 0 21 0 0 0 0 
		20 0 0 0 0 0 0 0 0 0 0 0 0 0 0 0 0 0 0 0 0 0 0 0 11 0 
		21 0 0 0 0 0 0 0 0 0 0 0 0 0 0 0 0 0 0 0 0 0 0 0 0 0 
		22 0 0 0 0 0 0 0 0 0 0 0 0 0 0 0 0 0 0 0 0 0 0 0 0 0 
		23 0 0 0 0 0 0 0 0 0 0 0 0 0 0 0 0 0 0 0 0 0 0 0 0 0 
		24 0 0 0 0 0 0 0 0 0 0 0 0 0 0 0 0 0 0 0 0 0 0 0 0 0 
;
param bs:	 0 1 2 3 4 5 6 7 8 9 10 11 12 13 14 15 16 17 18 19 20 21 22 23 24 25 26 27 28 29 30 31 32 33 34 35 36 37 38 39 40 41 42 43 44 45 46 47 48 49 50 51 52 53 54 := 
		0 0 0 0 0 0 0 0 0 0 32 0 0 0 0 0 0 0 0 0 0 0 0 0 0 0 0 0 0 0 0 0 0 0 0 0 0 0 0 0 0 0 0 0 0 0 0 0 0 0 37 0 0 0 0 0 
		1 0 0 0 0 0 0 0 0 31 0 0 0 0 0 27 0 0 0 0 0 0 0 0 0 0 0 0 28 0 0 37 0 37 30 0 0 0 23 0 0 0 0 0 29 26 0 0 0 30 0 40 0 0 0 0 
		2 0 0 0 0 0 0 0 0 0 0 0 21 30 0 0 0 0 0 0 0 33 0 0 0 0 0 0 0 0 0 0 0 0 0 0 0 0 0 0 0 32 0 0 0 0 33 0 0 0 0 0 30 0 0 0 
		3 0 0 0 0 0 0 0 0 0 0 0 0 0 0 0 0 0 30 0 0 0 0 0 0 0 0 0 0 0 0 22 0 0 0 0 0 0 0 0 0 0 0 0 0 0 0 0 0 0 0 0 23 0 0 0 
		4 0 0 0 0 0 0 0 0 0 0 0 0 0 0 0 22 0 0 0 0 0 0 0 0 0 0 0 0 0 0 0 0 0 24 0 28 0 33 20 0 0 0 32 25 0 0 0 0 0 0 0 0 0 0 0 
		5 0 0 0 0 0 0 0 0 0 0 0 0 0 0 34 22 20 0 0 0 0 22 0 24 0 0 0 0 0 0 0 0 0 0 0 0 0 0 0 0 0 32 0 0 0 37 0 0 0 0 0 0 0 0 0 
		6 0 0 0 0 0 0 0 0 0 0 31 0 0 0 0 0 0 35 32 0 0 0 0 0 0 0 0 0 0 0 25 0 0 0 31 0 0 0 0 0 0 0 0 0 0 0 0 0 22 0 0 0 0 0 0 
		7 0 0 0 0 0 0 0 0 0 0 0 0 39 0 36 0 0 0 0 0 23 0 0 37 23 38 0 39 0 0 0 24 0 0 0 39 31 24 0 0 0 26 0 0 0 0 0 21 0 0 0 0 0 0 0 
		8 0 31 0 0 0 0 0 0 0 0 0 0 0 0 0 0 0 0 0 0 0 0 0 0 0 0 27 0 0 0 0 25 0 0 0 0 0 0 20 35 0 0 0 0 0 0 0 0 0 0 0 0 24 0 0 
		9 32 0 0 0 0 0 0 0 0 0 31 0 0 35 0 0 0 0 0 0 0 25 0 0 0 0 0 0 0 0 0 0 0 0 0 0 0 0 0 0 0 0 0 0 0 0 0 0 0 0 0 0 0 0 0 
		10 0 0 0 0 0 0 31 0 0 31 0 0 0 37 27 23 35 0 0 0 0 0 0 0 0 0 0 29 39 0 0 0 0 0 0 0 0 0 0 0 0 0 0 0 39 0 0 27 0 0 0 0 0 0 0 
		11 0 0 21 0 0 0 0 0 0 0 0 0 0 0 0 0 0 0 0 27 0 0 0 0 0 0 38 26 0 0 0 0 0 0 0 0 0 0 40 31 34 0 0 0 0 0 0 0 0 0 0 0 0 0 0 
		12 0 0 30 0 0 0 0 39 0 0 0 0 0 37 0 0 0 0 0 0 35 0 0 0 0 0 0 0 0 0 0 0 0 0 0 0 0 25 0 0 0 0 0 0 32 0 0 0 0 0 20 0 0 0 0 
		13 0 0 0 0 0 0 0 0 0 35 37 0 37 0 0 29 38 0 0 0 0 0 0 0 0 33 0 0 0 0 0 0 0 0 0 0 22 0 0 0 0 0 0 0 0 0 0 40 0 0 0 0 0 0 0 
		14 0 27 0 0 0 34 0 36 0 0 27 0 0 0 0 0 0 0 0 0 0 0 0 0 0 0 0 38 0 0 0 35 0 31 0 0 0 0 0 0 0 0 0 23 0 0 0 0 0 0 0 0 0 30 0 
		15 0 0 0 0 22 22 0 0 0 0 23 0 0 29 0 0 0 0 0 0 0 0 0 23 0 0 0 0 32 0 0 0 30 0 0 0 0 0 36 34 0 0 33 0 0 0 0 0 30 26 0 0 0 0 34 
		16 0 0 0 0 0 20 0 0 0 0 35 0 0 38 0 0 0 0 26 0 27 0 0 36 0 32 0 0 0 0 0 0 0 0 0 26 0 0 0 0 0 0 0 0 0 0 0 25 35 0 0 20 0 28 0 
		17 0 0 0 30 0 0 35 0 0 0 0 0 0 0 0 0 0 0 0 0 0 0 0 0 0 0 30 0 0 0 0 0 0 0 0 27 0 0 0 0 0 0 29 0 0 0 0 0 0 0 0 0 0 0 30 
		18 0 0 0 0 0 0 32 0 0 0 0 0 0 0 0 0 26 0 0 0 0 0 0 0 0 0 0 0 0 0 0 0 25 27 0 0 0 0 31 0 0 0 0 0 0 0 0 0 27 0 0 0 0 0 0 
		19 0 0 0 0 0 0 0 0 0 0 0 27 0 0 0 0 0 0 0 0 0 0 0 0 0 0 0 0 0 0 0 0 0 0 0 0 0 0 24 24 0 0 0 0 0 30 0 0 0 0 0 0 0 0 0 
		20 0 0 33 0 0 0 0 23 0 0 0 0 35 0 0 0 27 0 0 0 0 0 0 33 0 0 0 0 0 34 0 0 27 0 0 0 0 0 0 0 0 0 0 37 21 0 0 0 0 37 0 0 30 0 0 
		21 0 0 0 0 0 22 0 0 0 25 0 0 0 0 0 0 0 0 0 0 0 0 26 0 0 0 0 0 0 0 39 0 0 0 0 0 0 0 35 0 0 20 0 0 31 0 0 0 0 0 0 0 0 0 0 
		22 0 0 0 0 0 0 0 0 0 0 0 0 0 0 0 0 0 0 0 0 0 26 0 0 0 0 0 0 0 0 0 0 0 0 0 0 0 0 0 0 0 0 0 0 0 0 0 0 0 0 0 0 0 0 0 
		23 0 0 0 0 0 24 0 37 0 0 0 0 0 0 0 23 36 0 0 0 33 0 0 0 0 31 0 39 0 0 0 39 0 0 31 0 0 34 0 0 27 0 28 0 0 38 0 0 0 0 0 0 23 0 0 
		24 0 0 0 0 0 0 0 23 0 0 0 0 0 0 0 0 0 0 0 0 0 0 0 0 0 0 0 0 0 0 0 0 0 0 0 0 27 0 0 0 31 0 0 0 0 0 0 36 0 0 0 0 0 0 0 
		25 0 0 0 0 0 0 0 38 0 0 0 0 0 33 0 0 32 0 0 0 0 0 0 31 0 0 0 20 0 38 28 0 0 40 0 0 0 0 0 0 0 0 0 21 0 0 0 29 27 0 0 0 0 0 0 
		26 0 0 0 0 0 0 0 0 27 0 0 38 0 0 0 0 0 30 0 0 0 0 0 0 0 0 0 0 0 0 0 0 0 0 27 0 0 0 0 0 0 0 0 0 0 0 0 0 0 0 0 0 32 0 0 
		27 0 28 0 0 0 0 0 39 0 0 29 26 0 0 38 0 0 0 0 0 0 0 0 39 0 20 0 0 0 0 0 0 0 0 0 0 0 0 0 0 0 0 24 0 0 0 0 0 0 0 0 0 0 0 0 
		28 0 0 0 0 0 0 0 0 0 0 39 0 0 0 0 32 0 0 0 0 0 0 0 0 0 0 0 0 0 0 0 0 34 0 0 0 0 0 0 0 0 0 23 0 0 0 0 0 0 38 0 0 0 0 0 
		29 0 0 0 0 0 0 0 0 0 0 0 0 0 0 0 0 0 0 0 0 34 0 0 0 0 38 0 0 0 0 0 0 0 36 0 0 0 0 0 0 0 40 0 0 26 0 0 0 0 0 0 0 0 0 0 
		30 0 37 0 22 0 0 25 0 0 0 0 0 0 0 0 0 0 0 0 0 0 39 0 0 0 28 0 0 0 0 0 0 0 0 0 0 20 37 0 0 0 0 0 0 0 25 0 0 0 0 0 0 0 0 0 
		31 0 0 0 0 0 0 0 24 25 0 0 0 0 0 35 0 0 0 0 0 0 0 0 39 0 0 0 0 0 0 0 0 0 0 0 0 0 27 0 0 0 35 0 0 0 0 28 0 23 0 28 28 0 0 0 
		32 0 37 0 0 0 0 0 0 0 0 0 0 0 0 0 30 0 0 25 0 27 0 0 0 0 0 0 0 34 0 0 0 0 0 0 22 0 0 0 0 0 0 0 0 0 0 0 0 0 0 0 0 0 0 0 
		33 0 30 0 0 24 0 0 0 0 0 0 0 0 0 31 0 0 0 27 0 0 0 0 0 0 40 0 0 0 36 0 0 0 0 0 0 36 0 0 0 0 0 27 37 0 0 0 0 0 0 30 0 0 0 0 
		34 0 0 0 0 0 0 31 0 0 0 0 0 0 0 0 0 0 0 0 0 0 0 0 31 0 0 27 0 0 0 0 0 0 0 0 0 0 0 0 0 0 0 0 0 0 0 0 0 0 0 0 0 33 22 0 
		35 0 0 0 0 28 0 0 39 0 0 0 0 0 0 0 0 26 27 0 0 0 0 0 0 0 0 0 0 0 0 0 0 22 0 0 0 0 0 0 0 0 0 32 0 0 0 0 0 0 0 0 0 0 0 20 
		36 0 0 0 0 0 0 0 31 0 0 0 0 0 22 0 0 0 0 0 0 0 0 0 0 27 0 0 0 0 0 20 0 0 36 0 0 0 0 33 0 0 0 0 0 0 0 23 39 0 0 0 0 0 0 0 
		37 0 23 0 0 33 0 0 24 0 0 0 0 25 0 0 0 0 0 0 0 0 0 0 34 0 0 0 0 0 0 37 27 0 0 0 0 0 0 0 0 0 0 0 31 0 0 0 0 0 0 0 0 21 0 37 
		38 0 0 0 0 20 0 0 0 20 0 0 40 0 0 0 36 0 0 31 24 0 35 0 0 0 0 0 0 0 0 0 0 0 0 0 0 33 0 0 0 0 0 0 0 0 28 0 0 0 0 0 0 0 0 0 
		39 0 0 0 0 0 0 0 0 35 0 0 31 0 0 0 34 0 0 0 24 0 0 0 0 0 0 0 0 0 0 0 0 0 0 0 0 0 0 0 0 0 0 30 0 0 0 0 0 0 0 0 0 0 0 0 
		40 0 0 32 0 0 0 0 0 0 0 0 34 0 0 0 0 0 0 0 0 0 0 0 27 31 0 0 0 0 0 0 0 0 0 0 0 0 0 0 0 0 0 0 0 0 0 0 0 0 0 0 0 26 0 0 
		41 0 0 0 0 0 32 0 26 0 0 0 0 0 0 0 0 0 0 0 0 0 20 0 0 0 0 0 0 0 40 0 35 0 0 0 0 0 0 0 0 0 0 0 0 0 0 33 0 0 0 0 0 0 0 0 
		42 0 0 0 0 32 0 0 0 0 0 0 0 0 0 0 33 0 29 0 0 0 0 0 28 0 0 0 24 23 0 0 0 0 27 0 32 0 0 0 30 0 0 0 0 0 0 0 0 40 0 0 0 0 0 27 
		43 0 29 0 0 25 0 0 0 0 0 0 0 0 0 23 0 0 0 0 0 37 0 0 0 0 21 0 0 0 0 0 0 0 37 0 0 0 31 0 0 0 0 0 0 0 0 0 0 26 0 0 31 31 0 0 
		44 0 26 0 0 0 0 0 0 0 0 39 0 32 0 0 0 0 0 0 0 21 31 0 0 0 0 0 0 0 26 0 0 0 0 0 0 0 0 0 0 0 0 0 0 0 0 0 0 0 0 0 0 0 0 0 
		45 0 0 33 0 0 37 0 0 0 0 0 0 0 0 0 0 0 0 0 30 0 0 0 38 0 0 0 0 0 0 25 0 0 0 0 0 0 0 28 0 0 0 0 0 0 0 0 0 0 0 0 0 0 0 0 
		46 0 0 0 0 0 0 0 0 0 0 0 0 0 0 0 0 0 0 0 0 0 0 0 0 0 0 0 0 0 0 0 28 0 0 0 0 23 0 0 0 0 33 0 0 0 0 0 0 0 0 0 0 0 0 0 
		47 0 0 0 0 0 0 0 21 0 0 27 0 0 40 0 0 25 0 0 0 0 0 0 0 36 29 0 0 0 0 0 0 0 0 0 0 39 0 0 0 0 0 0 0 0 0 0 0 0 25 0 0 0 0 0 
		48 0 30 0 0 0 0 22 0 0 0 0 0 0 0 0 30 35 0 27 0 0 0 0 0 0 27 0 0 0 0 0 23 0 0 0 0 0 0 0 0 0 0 40 26 0 0 0 0 0 0 0 0 0 0 0 
		49 37 0 0 0 0 0 0 0 0 0 0 0 0 0 0 26 0 0 0 0 37 0 0 0 0 0 0 0 38 0 0 0 0 0 0 0 0 0 0 0 0 0 0 0 0 0 0 25 0 0 0 0 0 0 0 
		50 0 40 0 0 0 0 0 0 0 0 0 0 20 0 0 0 0 0 0 0 0 0 0 0 0 0 0 0 0 0 0 28 0 30 0 0 0 0 0 0 0 0 0 0 0 0 0 0 0 0 0 32 35 32 0 
		51 0 0 30 23 0 0 0 0 0 0 0 0 0 0 0 0 20 0 0 0 0 0 0 0 0 0 0 0 0 0 0 28 0 0 0 0 0 0 0 0 0 0 0 31 0 0 0 0 0 0 32 0 0 0 0 
		52 0 0 0 0 0 0 0 0 24 0 0 0 0 0 0 0 0 0 0 0 30 0 0 23 0 0 32 0 0 0 0 0 0 0 33 0 0 21 0 0 26 0 0 31 0 0 0 0 0 0 35 0 0 20 0 
		53 0 0 0 0 0 0 0 0 0 0 0 0 0 0 30 0 28 0 0 0 0 0 0 0 0 0 0 0 0 0 0 0 0 0 22 0 0 0 0 0 0 0 0 0 0 0 0 0 0 0 32 0 20 0 0 
		54 0 0 0 0 0 0 0 0 0 0 0 0 0 0 0 34 0 30 0 0 0 0 0 0 0 0 0 0 0 0 0 0 0 0 0 20 0 37 0 0 0 0 27 0 0 0 0 0 0 0 0 0 0 0 0 
;
